solution status: time limit reached
objective value:                                   72
$_116_y                                             5 	(obj:0)
$_116_z                                             9 	(obj:0)
$_118_y                                             9 	(obj:0)
$_118_z                                             9 	(obj:0)
$_248_y                                            17 	(obj:0)
$_248_z                                            16 	(obj:0)
$_127_y                                            19 	(obj:0)
$_127_z                                            13 	(obj:0)
$_280_y                                            19 	(obj:0)
$_280_z                                            17 	(obj:0)
$_247_y                                            19 	(obj:0)
$_247_z                                            16 	(obj:0)
$_296_y                                            18 	(obj:0)
$_296_z                                            16 	(obj:0)
$_183_y                                            19 	(obj:0)
$_183_z                                            20 	(obj:0)
$_203_y                                            14 	(obj:0)
$_203_z                                            24 	(obj:0)
$_295_y                                            20 	(obj:0)
$_295_z                                            18 	(obj:0)
$_231_y                                            17 	(obj:0)
$_231_z                                            17 	(obj:0)
$_267_y                                            19 	(obj:0)
$_267_z                                            18 	(obj:0)
$_219_y                                            14 	(obj:0)
$_219_z                                            20 	(obj:0)
$_279_y                                            20 	(obj:0)
$_279_z                                            16 	(obj:0)
$_199_y                                            21 	(obj:0)
$_199_z                                            20 	(obj:0)
$_115_y                                             6 	(obj:0)
$_115_z                                             8 	(obj:0)
$_200_y                                            17 	(obj:0)
$_200_z                                            20 	(obj:0)
$_251_y                                            19 	(obj:0)
$_251_z                                            14 	(obj:0)
$_184_y                                            17 	(obj:0)
$_184_z                                            19 	(obj:0)
$_97_y                                              6 	(obj:0)
$_97_z                                              9 	(obj:0)
$_112_y                                            20 	(obj:0)
$_112_z                                            17 	(obj:0)
$_106_y                                            16 	(obj:0)
$_106_z                                            24 	(obj:0)
$_187_y                                            13 	(obj:0)
$_187_z                                            20 	(obj:0)
$_114_y                                             9 	(obj:0)
$_114_z                                            10 	(obj:0)
$_96_y                                              7 	(obj:0)
$_96_z                                              8 	(obj:0)
$_216_y                                            18 	(obj:0)
$_216_z                                            20 	(obj:0)
$_283_y                                            15 	(obj:0)
$_283_z                                            17 	(obj:0)
$_232_y                                            17 	(obj:0)
$_232_z                                            18 	(obj:0)
$_94_y                                             19 	(obj:0)
$_94_z                                             19 	(obj:0)
$_100_y                                             9 	(obj:0)
$_100_z                                             8 	(obj:0)
$_264_y                                            21 	(obj:0)
$_264_z                                            18 	(obj:0)
$_311_y                                            21 	(obj:0)
$_311_z                                            16 	(obj:0)
$_98_y                                              5 	(obj:0)
$_98_z                                              8 	(obj:0)
$_319_y                                             8 	(obj:0)
$_319_z                                             8 	(obj:0)
$_167_y                                            20 	(obj:0)
$_167_z                                            20 	(obj:0)
$_263_y                                            21 	(obj:0)
$_263_z                                            17 	(obj:0)
$_299_y                                            17 	(obj:0)
$_299_z                                            13 	(obj:0)
$_117_y                                             8 	(obj:0)
$_117_z                                             9 	(obj:0)
$_235_y                                            15 	(obj:0)
$_235_z                                            16 	(obj:0)
$_215_y                                            18 	(obj:0)
$_215_z                                            18 	(obj:0)
$_170_y                                            16 	(obj:0)
$_170_z                                            23 	(obj:0)
$_166_y                                            18 	(obj:0)
$_166_z                                            19 	(obj:0)
$_99_y                                              8 	(obj:0)
$_99_z                                             10 	(obj:0)
x94                                                 2 	(obj:1)
x99                                                 2 	(obj:1)
x103                                                2 	(obj:1)
x107                                                2 	(obj:1)
x108                                                2 	(obj:1)
x125                                                2 	(obj:1)
x127                                                2 	(obj:1)
x130                                                2 	(obj:1)
x132                                                2 	(obj:1)
x137                                                2 	(obj:1)
x139                                                2 	(obj:1)
x145                                                2 	(obj:1)
x146                                                4 	(obj:1)
x147                                                2 	(obj:1)
x149                                                2 	(obj:1)
x150                                                4 	(obj:1)
x153                                                2 	(obj:1)
x164                                                4 	(obj:1)
x171                                                3 	(obj:1)
x172                                                2 	(obj:1)
x176                                                3 	(obj:1)
x179                                                2 	(obj:1)
x192                                                2 	(obj:1)
x199                                                1 	(obj:1)
x203                                                1 	(obj:1)
x207                                                4 	(obj:1)
x208                                                3 	(obj:1)
x213                                                1 	(obj:1)
x215                                                2 	(obj:1)
x222                                                2 	(obj:1)
x229                                                1 	(obj:1)
x230                                                3 	(obj:1)
